c colouring generated by benchmark framework
p edge 111 530
v 1 2
v 2 3
v 3 1
v 4 1
v 5 1
v 6 1
v 7 0
v 8 4
v 9 4
v 10 3
v 11 0
v 12 0
v 13 2
v 14 1
v 15 2
v 16 0
v 17 3
v 18 4
v 19 4
v 20 0
v 21 3
v 22 2
v 23 3
v 24 3
v 25 4
v 26 4
v 27 4
v 28 3
v 29 2
v 30 1
v 31 4
v 32 4
v 33 3
v 34 4
v 35 0
v 36 2
v 37 3
v 38 1
v 39 4
v 40 2
v 41 2
v 42 0
v 43 1
v 44 2
v 45 2
v 46 4
v 47 0
v 48 1
v 49 3
v 50 1
v 51 1
v 52 0
v 53 0
v 54 1
v 55 3
v 56 4
v 57 0
v 58 4
v 59 0
v 60 1
v 61 2
v 62 1
v 63 3
v 64 4
v 65 1
v 66 3
v 67 0
v 68 4
v 69 3
v 70 4
v 71 2
v 72 1
v 73 3
v 74 4
v 75 0
v 76 4
v 77 2
v 78 3
v 79 3
v 80 0
v 81 1
v 82 0
v 83 2
v 84 0
v 85 3
v 86 3
v 87 2
v 88 0
v 89 1
v 90 0
v 91 2
v 92 3
v 93 4
v 94 2
v 95 2
v 96 2
v 97 3
v 98 1
v 99 4
v 100 3
v 101 4
v 102 0
v 103 3
v 104 0
v 105 1
v 106 0
v 107 1
v 108 0
v 109 0
v 110 4
v 111 1
